c --- [ banner ] -------------------------------------------------------------
c 
c CaDiCaL Radically Simplified CDCL SAT Solver
c Copyright (c) 2016-2021 A. Biere, M. Fleury, N. Froleyks
c 
c Version 1.5.2 a5f15211db36c3956764e18194dd5bd63bf3b5e6
c g++ (GCC) 9.3.0 -Wall -Wextra -O3 -DNDEBUG
c Fri Oct 21 01:27:37 EDT 2022 Linux gra-login3 3.10.0-1160.66.1.el7.x86_64 x86_64
c 
c --- [ limit ] --------------------------------------------------------------
c 
c setting conflict limit to 200000 conflicts (due to '200000')
c 
c --- [ parsing input ] ------------------------------------------------------
c 
c reading DIMACS file from '33.cubes1569.adj'
c opening file to read '33.cubes1569.adj'
c found 'p cnf 6160 1595474' header
c parsed 1595474 clauses in 19.23 seconds process time
c closing file '33.cubes1569.adj'
c after reading 1457566770 bytes 1390.0 MB
c 
c --- [ options ] ------------------------------------------------------------
c 
c all options are set to their default value
c 
c --- [ solving ] ------------------------------------------------------------
c 
c time measured in process time since initialization
c 
c  seconds    reductions  redundant   irredundant
c          MB     restarts       trail       variables
c            level   conflicts       glue         remaining
c 
c * 19.23 1367  0 0   0    0    0  0% 0 1595422 2421 39%
c { 21.01 1447  0 0   0    0    0  0% 0 1595422 2421 39%
c i 21.77 1461 1078 0   0   11   10 41% 2 1595422 2410 39%
c i 23.11 1479 377 0   7   45   40 30% 26 1595422 2408 39%
c i 23.20 1480 304 0   9   58   52 30% 26 1595422 2402 39%
c i 24.56 1490 198 0  13  124  104 27% 23 1595422 2389 39%
c i 24.67 1490 196 0  14  129  108 27% 25 1595422 2388 39%
c i 24.67 1490 195 0  14  132  110 28% 25 1595422 2387 39%
c i 25.92 1495 172 0  22  166  140 27% 26 1595422 2379 39%
c i 26.07 1496 168 0  22  171  144 27% 26 1595422 2378 39%
c i 26.64 1497 153 0  26  203  168 27% 26 1595422 2375 39%
c i 26.67 1497 152 0  26  205  169 27% 26 1595422 2374 39%
c i 26.67 1497 151 0  26  206  169 27% 26 1595422 2373 39%
c i 27.31 1501 123 0  32  286  241 28% 28 1595422 2372 39%
c - 31.11 1407 119 1  33  301  252 28% 27 318823 2372 39%
c i 31.56 1407 109 1  33  338  284 28% 27 318823 2371 38%
c i 31.66 1407 99 1  33  389  319 28% 26 318823 2370 38%
c i 31.68 1407 98 1  33  398  323 28% 26 318823 2369 38%
c i 31.76 1407 94 1  33  420  344 28% 26 318823 2368 38%
c i 31.81 1407 93 1  33  423  346 28% 26 318823 2367 38%
c 
c  seconds    reductions  redundant   irredundant
c          MB     restarts       trail       variables
c            level   conflicts       glue         remaining
c 
c i 31.94 1407 94 1  36  436  356 28% 27 318823 2366 38%
c i 32.10 1407 94 1  41  455  374 28% 27 318823 2365 38%
c i 32.16 1407 93 1  44  467  382 28% 28 318823 2364 38%
c i 32.27 1366 93 1  51  491  398 28% 28 318823 2363 38%
c i 33.01 1366 84 1  65  621  489 28% 28 318823 2362 38%
c i 33.08 1366 83 1  65  645  511 28% 28 318823 2361 38%
c i 33.45 1366 81 1  75  701  562 28% 29 318823 2360 38%
c i 33.50 1366 81 1  77  706  566 28% 29 318823 2359 38%
c i 33.59 1366 81 1  81  722  579 28% 29 318823 2358 38%
c i 33.67 1366 80 1  81  729  585 27% 28 318823 2357 38%
c i 33.95 1366 80 1  83  755  604 27% 28 318823 2356 38%
c i 34.31 1366 83 1  88  809  643 27% 29 318823 2355 38%
c i 34.31 1366 83 1  88  810  643 27% 29 318823 2354 38%
c i 34.33 1366 82 1  90  815  647 27% 29 318823 2346 38%
c i 34.66 1366 79 1  96  907  717 27% 29 318823 2345 38%
c i 34.73 1366 78 1  96  933  741 27% 29 318823 2344 38%
c i 34.78 1366 78 1  96  947  752 27% 29 318823 2343 38%
c i 34.80 1366 77 1  96  950  754 27% 29 318823 2342 38%
c i 34.83 1366 77 1  96  954  757 27% 29 318823 2341 38%
c i 34.85 1366 77 1  96  957  759 27% 29 318823 2340 38%
c 
c  seconds    reductions  redundant   irredundant
c          MB     restarts       trail       variables
c            level   conflicts       glue         remaining
c 
c i 34.86 1366 77 1  96  960  761 27% 29 318823 2339 38%
c } 35.12 1367 77 1  99 1001  797 28% 29 318823 2339 38%
c [ 35.12 1367  0 1  99 1001  797  0% 0 318823 2339 38%
c O 35.13 1367  3 1  99 1002  798 13% 3 318823 2339 38%
c i 35.38 1367 17 1  99 1017  810 23% 10 318823 2338 38%
c i 35.39 1367 18 1  99 1019  811 24% 11 318823 2337 38%
c i 35.40 1367 21 1  99 1023  814 25% 14 318823 2336 38%
c i 35.46 1367 28 1  99 1041  831 27% 20 318823 2335 38%
c i 35.48 1367 30 1  99 1050  838 28% 23 318823 2334 38%
c i 35.49 1367 30 1  99 1055  842 28% 24 318823 2333 38%
c i 35.49 1367 29 1  99 1056  842 28% 23 318823 2332 38%
c i 35.49 1367 31 1  99 1067  851 28% 25 318823 2331 38%
c i 35.50 1367 31 1  99 1072  855 28% 25 318823 2330 38%
c i 35.52 1367 31 1  99 1077  859 28% 25 318823 2329 38%
c i 35.61 1367 33 1  99 1145  912 29% 27 318823 2328 38%
c i 35.62 1367 33 1  99 1149  914 29% 27 318823 2327 38%
c i 35.65 1367 33 1  99 1187  944 29% 27 318823 2326 38%
c i 35.66 1367 33 1  99 1199  954 29% 27 318823 2325 38%
c i 35.66 1367 33 1  99 1200  954 29% 27 318823 2324 38%
c i 35.66 1367 33 1  99 1202  954 29% 27 318823 2323 38%
c 
c  seconds    reductions  redundant   irredundant
c          MB     restarts       trail       variables
c            level   conflicts       glue         remaining
c 
c - 36.27 1501 33 2  99 1203  824 29% 27 318544 2323 38%
c i 36.30 1501 33 2  99 1206  826 29% 27 318544 2322 38%
c i 36.36 1501 33 2  99 1218  832 29% 27 318544 2321 38%
c i 36.37 1501 33 2  99 1222  834 29% 27 318544 2320 38%
c i 36.41 1501 32 2  99 1252  849 29% 27 318544 2319 38%
c i 36.42 1501 32 2  99 1265  856 29% 27 318544 2318 38%
c i 36.45 1501 32 2  99 1295  877 30% 27 318544 2317 38%
c i 36.47 1501 31 2  99 1345  907 30% 26 318544 2316 38%
c i 36.92 1501 29 2 100 2268 1510 31% 26 318544 2315 38%
c i 37.02 1501 29 2 100 2506 1708 32% 25 318544 2314 38%
c - 37.41 1499 29 3 100 2555 1297 32% 25 318517 2314 38%
c i 37.76 1499 28 3 100 2749 1439 56% 25 318517 2313 38%
c i 37.82 1499 27 3 100 2892 1526 56% 24 318517 2312 38%
c i 37.83 1499 27 3 100 2903 1533 56% 24 318517 2311 38%
c i 37.84 1499 27 3 100 2925 1549 56% 24 318517 2310 38%
c ] 37.88 1499 27 3 100 3001 1601 56% 24 318517 2310 38%
c { 37.88 1499 77 3 100 3001 1601 73% 29 318517 2310 38%
c F 37.93 1499 77 3 102 3007 1607 73% 29 318517 2310 38%
c i 38.12 1499 74 3 103 3060 1650 72% 28 318517 2309 37%
c i 38.25 1499 70 3 103 3149 1716 70% 27 318517 2308 37%
c 
c  seconds    reductions  redundant   irredundant
c          MB     restarts       trail       variables
c            level   conflicts       glue         remaining
c 
c i 38.37 1499 60 3 103 3428 1915 65% 25 318517 2307 37%
c i 38.47 1499 57 3 103 3569 2009 63% 24 318517 2306 37%
c i 38.70 1499 56 3 108 3699 2116 62% 24 318517 2305 37%
c i 38.73 1499 56 3 109 3702 2118 62% 24 318517 2304 37%
c i 38.80 1499 56 3 116 3725 2140 62% 24 318517 2303 37%
c i 38.99 1499 55 3 119 3839 2236 61% 24 318517 2302 37%
c i 39.13 1499 53 3 121 4041 2401 60% 24 318517 2301 37%
c i 39.16 1499 52 3 121 4119 2452 59% 24 318517 2300 37%
c i 39.33 1499 49 3 121 4350 2636 58% 23 318517 2299 37%
c - 39.67 1496 49 4 122 4363 1929 58% 24 318475 2299 37%
c i 39.77 1496 49 4 123 4410 1960 57% 23 318475 2298 37%
c i 39.87 1496 48 4 126 4516 2047 57% 23 318475 2297 37%
c i 40.00 1496 46 4 126 4793 2257 56% 23 318475 2296 37%
c i 40.01 1496 46 4 126 4827 2278 56% 23 318475 2295 37%
c i 40.01 1496 46 4 126 4830 2280 56% 23 318475 2294 37%
c i 40.05 1496 46 4 126 4859 2298 56% 23 318475 2293 37%
c d 40.63 1496 45 4 126 5004 2392 55% 23 305560 2284 37%
c 2 40.70 1496 45 4 126 5004 3095 55% 23 305549 2276 37%
c p 42.67 1496 45 4 126 5004 5228 55% 23 305549 2221 36%
c d 43.09 1496 45 4 126 5004 5167 55% 23 240430 2220 36%
c 
c  seconds    reductions  redundant   irredundant
c          MB     restarts       trail       variables
c            level   conflicts       glue         remaining
c 
c # 45.96 1496 48 4 260 6008 5993 52% 24 240430 2220 36%
c - 46.74 1369 45 5 260 6617 2818 51% 23 240430 2220 36%
c } 47.01 1369 43 5 260 7008 3130 51% 22 240430 2220 36%
c [ 47.01 1369 27 5 260 7008 3130 56% 24 240430 2220 36%
c - 48.06 1369 23 6 261 9103 3470 50% 20 240430 2220 36%
c I 48.47 1369 23 6 262 10009 4183 49% 20 240430 2220 36%
c - 50.12 1370 31 7 264 12007 3836 49% 26 240430 2220 36%
c 3 51.86 1370 36 7 265 15004 7002 49% 30 240430 2220 36%
c 2 51.90 1370 36 7 265 15004 7002 49% 30 240429 2220 36%
c p 52.96 1370 36 7 265 15004 9305 49% 30 240429 2220 36%
c ] 53.05 1370 36 7 265 15008 9309 49% 30 240429 2220 36%
c { 53.05 1370 43 7 265 15008 9309 51% 22 240429 2220 36%
c B 53.07 1370 43 7 265 15011 9312 51% 22 240429 2220 36%
c - 54.95 1370 45 8 335 15322 4298 51% 23 240429 2220 36%
c s 63.37 1370 45 8 641 18731 6984 49% 25 238791 2220 36%
c v 67.69 1370 45 8 641 18731 6984 49% 25 238785 2220 36%
c t 67.77 1370 45 8 641 18731 6970 49% 25 238777 2220 36%
c e 68.60 1374 45 8 641 18731 6224 49% 25 235876 783 13%
c s 68.71 1374 45 8 641 18731 6224 49% 25 235511 783 13%
c - 70.18 1374 44 9 649 19051 4501 76% 25 235511 783 13%
c 
c  seconds    reductions   redundant   irredundant
c          MB     restarts        trail       variables
c            level    conflicts       glue        remaining
c 
c W 71.79 1374 40 9 650 21012 5711 76% 24 235511 783 13%
c - 74.36 1374 39 10 743 23168 5245 75% 23 235511 783 13%
c - 78.40 1375 36 11 863 27696 5966 75% 22 235511 783 13%
c F 78.76 1375 35 11 867 28015 6200 75% 22 235511 783 13%
c p 80.82 1375 34 11 878 30004 9500 75% 22 235511 783 13%
c } 83.68 1375 34 11 983 31008 10294 75% 22 235511 783 13%
c [ 83.68 1375 36 11 983 31008 10294 145% 30 235511 783 13%
c - 84.63 1376 40 12 983 32635 7199 134% 32 235511 783 13%
c B 85.65 1376 44 12 986 36016 9581 119% 36 235511 783 13%
c - 86.73 1376 43 13 987 37989 7493 114% 34 235511 783 13%
c ] 87.65 1376 41 13 989 39752 8799 110% 33 235511 783 13%
c 1 87.65 1376 41 13 989 39752 8799 110% 33 235511 783 13%
c 
c --- [ writing output ] -----------------------------------------------------
c 
c writing simplified CNF to DIMACS file 'simp/33.cubes1569.adj.simp1'
c * 87.65 1376 41 13 989 39752 8799 110% 33 235511 783 13%
c opening file to write 'simp/33.cubes1569.adj.simp1'
c writing 'p cnf 6160 235511' header
c closing file 'simp/33.cubes1569.adj.simp1'
c after writing 107121865 bytes 102.2 MB
c wrote 235511 clauses in 0.78 seconds process time
c 
c --- [ writing extension ] --------------------------------------------------
c 
c writing extension stack to 'simp/33.cubes1569.adj.ext1'
c opening file to write 'simp/33.cubes1569.adj.ext1'
c closing file 'simp/33.cubes1569.adj.ext1'
c after writing 92698 bytes 0.1 MB
c wrote 4100 witnesses in 0.00 seconds process time
c 
c --- [ result ] -------------------------------------------------------------
c 
s SATISFIABLE
c 
c --- [ run-time profiling ] -------------------------------------------------
c 
c process time taken by individual solving procedures
c (percentage relative to process time for solving)
c 
c        57.18   83.59% search
c        43.43   63.47% unstable
c        19.23   28.11% parse
c        11.61   16.97% stable
c        11.23   16.41% simplify
c         4.37    6.39% vivify
c         3.94    5.76% probe
c         1.77    2.59% lucky
c         1.56    2.28% elim
c         0.37    0.55% walk
c         0.21    0.30% subsume
c         0.12    0.17% ternary
c   =================================
c        68.41   77.37% solve
c 
c last line shows process time for solving
c (percentage relative to total process time)
c 
c --- [ statistics ] ---------------------------------------------------------
c 
c chronological:              8034        20.21 %  of conflicts
c conflicts:                 39752       581.04    per second
c decisions:                120046      1754.68    per second
c eliminated:                 1437        23.33 %  of all variables
c fixed:                       786        12.76 %  of all variables
c learned:                   38833        97.69 %  per conflict
c learned_lits:            7379982       100.00 %  learned literals
c minimized:                     0         0.00 %  learned literals
c shrunken:                4180163        56.64 %  learned literals
c minishrunken:             710511         9.63 %  learned literals
c propagations:            4291827         0.06 M  per second
c reduced:                   20193        50.80 %  per conflict
c rephased:                      8      4969.00    interval
c restarts:                    989        40.19    interval
c stabilizing:                   3        47.15 %  of conflicts
c substituted:                  10         0.16 %  of all variables
c subsumed:                  11051         0.32 %  of all clauses
c strengthened:               3534         0.10 %  of all clauses
c ternary:                    2016         0.51 %  of resolved
c vivified:                     19         0.00 %  of all clauses
c walked:                        1     39752.00    interval
c weakened:                   3314         3.02    average size
c 
c seconds are measured in process time for solving
c 
c --- [ resources ] ----------------------------------------------------------
c 
c total process time since initialization:        88.43    seconds
c total real time since initialization:           89.07    seconds
c maximum resident set size of process:         1633.49    MB
c 
c --- [ shutting down ] ------------------------------------------------------
c 
c exit 10
WARNING! DIMACS header mismatch: wrong number of variables.
============================[ Problem Statistics ]=============================
|                                                                             |
|  Number of variables:          3023                                         |
|  Number of clauses:          235513                                         |
|  Parse time:                   1.41 s                                       |
|  Simplification time:          0.03 s                                       |
|                                                                             |
============================[ Search Statistics ]====================================================
| Conflicts |          ORIGINAL         |          LEARNT          | Num Sols |      SUBGRAPHS      |
|           |    Vars  Clauses Literals |    Limit  Clauses Lit/Cl |          | Canonical Noncanon. |
=====================================================================================================
|       202 |    2930   235615 23161972 |     2000      202     48 |        0 |        46       102 |
|       410 |    2930   235673 23163714 |     2000      410     58 |        0 |        86       160 |
|       642 |    2930   235680 23163982 |     2000      642     74 |        0 |        93       167 |
|       988 |    2930   235689 23164134 |     2000      988     87 |        0 |       101       176 |
|      1537 |    2930   235732 23164980 |     2000     1537     92 |        0 |       134       219 |
|      2299 |    2930   235735 23165026 |     3602     1301     62 |        0 |       166       222 |
|      3443 |    2930   235740 23165282 |     3602     2445     84 |        0 |       193       227 |
|      9962 |    2930   240551 23263415 |     6302     4664     34 |        0 |       905      5038 |
|     15197 |    2930   243224 23318875 |     7554     6751     39 |        0 |      1323      7711 |
|     21342 |    2930   245525 23366087 |     9999     4741     26 |        0 |      1949     10012 |
|     27294 |    2930   245711 23370397 |    11201     5695     29 |        0 |      2064     10198 |
|     37256 |    2930   247024 23395557 |    12407    10063     59 |        0 |      2526     11511 |
|     70765 |    2930   267559 23803114 |    17208    15173     28 |        0 |      5498     32046 |
|     98620 |    2930   275953 23955095 |    20810    15430     53 |        0 |      6728     40440 |
|    143799 |    2930   291940 24268983 |    25609    15408     39 |        0 |      9006     56427 |
|    213895 |    2930   318247 24735389 |    31619    15514     17 |        0 |     13362     82734 |
|    293215 |    2930   331883 24993453 |    36409    28024     49 |        0 |     16584     96370 |
|    438494 |    2930   378636 25764913 |    44817    33311     43 |        0 |     24681    143123 |
|    723301 |    2930   515654 27921444 |    58011    38712     37 |        0 |     44684    280141 |
|   1202934 |    2930   773604 31897041 |    74822    57756     46 |        0 |     74690    538091 |
|   1679550 |    2930   917695 34054431 |    89227    45977     20 |        0 |    104837    682182 |
|   2645800 |    2913  1208218 38013459 |    89727    39927     24 |        0 |    149104   1149644 |
=====================================================================================================
Number of solutions   : 0
Canonical subgraphs   : 156692         (30 /sec)
          order  3    : 1              (125000 /sec)
          order  4    : 1              (500000 /sec)
          order  5    : 1              (200000 /sec)
          order  6    : 1              (55556 /sec)
          order  7    : 1              (8000 /sec)
          order  8    : 2              (1358 /sec)
          order  9    : 7              (353 /sec)
          order 10    : 31             (111 /sec)
          order 11    : 147            (64 /sec)
          order 12    : 856            (51 /sec)
          order 13    : 5127           (65 /sec)
          order 14    : 33312          (53 /sec)
          order 15    : 53352          (34 /sec)
          order 16    : 45008          (24 /sec)
          order 17    : 13320          (19 /sec)
          order 18    : 3795           (18 /sec)
          order 19    : 1575           (17 /sec)
          order 20    : 124            (18 /sec)
          order 21    : 31             (22 /sec)
          order 22    : 0              (-nan /sec)
Noncanonical subgraphs: 1235277        (281 /sec)
          order  3    : 0              (-nan /sec)
          order  4    : 0              (-nan /sec)
          order  5    : 0              (-nan /sec)
          order  6    : 0              (-nan /sec)
          order  7    : 0              (-nan /sec)
          order  8    : 0              (-nan /sec)
          order  9    : 0              (-nan /sec)
          order 10    : 0              (-nan /sec)
          order 11    : 0              (-nan /sec)
          order 12    : 0              (-nan /sec)
          order 13    : 25380          (2338 /sec)
          order 14    : 43063          (3111 /sec)
          order 15    : 1014766        (288 /sec)
          order 16    : 112813         (199 /sec)
          order 17    : 39210          (138 /sec)
          order 18    : 3              (44 /sec)
          order 19    : 3              (32 /sec)
          order 20    : 1              (260 /sec)
          order 21    : 0              (-nan /sec)
Canonicity checking   : 5183.92 s
Noncanonicity checking: 4398.08 s
Total canonicity time : 9582 s
database reductions   : 94
restarts              : 5058
conflicts             : 2858420        (262 /sec)
decisions             : 4606403        (0.00 % random) (423 /sec)
propagations          : 125434882      (11512 /sec)
conflict literals     : 214591169      (54.34 % deleted)
actual reward         : 0.233422
Memory used           : 642.00 MB
CPU time              : 10896.3 s

UNSATISFIABLE
